c FILE: random-n100-d40-j-n100-d40-1.col

p edge 100 1980
e 1 4
e 1 6
e 1 7
e 1 8
e 1 16
e 1 18
e 1 28
e 1 29
e 1 30
e 1 31
e 1 34
e 1 37
e 1 38
e 1 39
e 1 42
e 1 45
e 1 47
e 1 57
e 1 59
e 1 60
e 1 65
e 1 69
e 1 73
e 1 77
e 1 81
e 1 83
e 1 84
e 1 85
e 1 86
e 1 92
e 1 93
e 2 3
e 2 5
e 2 7
e 2 8
e 2 10
e 2 12
e 2 16
e 2 17
e 2 18
e 2 19
e 2 20
e 2 21
e 2 22
e 2 23
e 2 26
e 2 28
e 2 29
e 2 32
e 2 33
e 2 35
e 2 37
e 2 38
e 2 43
e 2 44
e 2 57
e 2 61
e 2 62
e 2 65
e 2 70
e 2 72
e 2 74
e 2 75
e 2 76
e 2 77
e 2 79
e 2 86
e 2 87
e 2 89
e 2 91
e 2 92
e 2 94
e 2 98
e 3 6
e 3 11
e 3 13
e 3 14
e 3 15
e 3 16
e 3 20
e 3 26
e 3 27
e 3 29
e 3 35
e 3 36
e 3 40
e 3 41
e 3 47
e 3 50
e 3 51
e 3 56
e 3 66
e 3 69
e 3 74
e 3 77
e 3 78
e 3 85
e 3 86
e 3 88
e 3 91
e 3 92
e 3 94
e 3 97
e 4 7
e 4 9
e 4 15
e 4 18
e 4 21
e 4 22
e 4 23
e 4 30
e 4 31
e 4 33
e 4 40
e 4 41
e 4 42
e 4 43
e 4 46
e 4 52
e 4 53
e 4 54
e 4 59
e 4 60
e 4 64
e 4 68
e 4 70
e 4 74
e 4 76
e 4 78
e 4 79
e 4 81
e 4 82
e 4 83
e 4 85
e 4 87
e 4 88
e 4 89
e 4 90
e 4 91
e 4 93
e 4 94
e 4 97
e 4 98
e 4 100
e 5 7
e 5 8
e 5 16
e 5 17
e 5 22
e 5 24
e 5 25
e 5 27
e 5 30
e 5 32
e 5 33
e 5 34
e 5 38
e 5 41
e 5 42
e 5 43
e 5 47
e 5 49
e 5 50
e 5 55
e 5 60
e 5 61
e 5 62
e 5 63
e 5 70
e 5 71
e 5 72
e 5 74
e 5 77
e 5 79
e 5 81
e 5 82
e 5 84
e 5 87
e 5 88
e 5 91
e 5 95
e 5 96
e 5 99
e 5 100
e 6 8
e 6 9
e 6 10
e 6 14
e 6 16
e 6 19
e 6 20
e 6 25
e 6 26
e 6 27
e 6 29
e 6 33
e 6 36
e 6 37
e 6 42
e 6 43
e 6 48
e 6 49
e 6 52
e 6 55
e 6 56
e 6 57
e 6 58
e 6 60
e 6 61
e 6 64
e 6 65
e 6 66
e 6 67
e 6 69
e 6 70
e 6 71
e 6 72
e 6 81
e 6 82
e 6 86
e 6 88
e 6 89
e 6 90
e 6 91
e 6 92
e 6 94
e 6 96
e 6 98
e 6 100
e 7 8
e 7 11
e 7 12
e 7 13
e 7 14
e 7 16
e 7 19
e 7 20
e 7 22
e 7 24
e 7 26
e 7 36
e 7 38
e 7 42
e 7 53
e 7 61
e 7 62
e 7 63
e 7 66
e 7 68
e 7 69
e 7 74
e 7 75
e 7 78
e 7 79
e 7 81
e 7 83
e 7 88
e 7 89
e 7 91
e 7 95
e 7 100
e 8 9
e 8 15
e 8 16
e 8 17
e 8 18
e 8 19
e 8 21
e 8 23
e 8 25
e 8 26
e 8 30
e 8 31
e 8 33
e 8 34
e 8 37
e 8 38
e 8 39
e 8 41
e 8 45
e 8 46
e 8 50
e 8 51
e 8 53
e 8 54
e 8 56
e 8 59
e 8 61
e 8 62
e 8 63
e 8 66
e 8 79
e 8 81
e 8 87
e 8 88
e 8 89
e 8 93
e 8 98
e 8 99
e 9 14
e 9 15
e 9 16
e 9 18
e 9 19
e 9 22
e 9 27
e 9 30
e 9 32
e 9 34
e 9 38
e 9 44
e 9 45
e 9 46
e 9 49
e 9 52
e 9 54
e 9 57
e 9 59
e 9 61
e 9 62
e 9 64
e 9 70
e 9 71
e 9 72
e 9 74
e 9 78
e 9 79
e 9 81
e 9 82
e 9 84
e 9 85
e 9 92
e 9 93
e 9 95
e 9 97
e 10 11
e 10 12
e 10 13
e 10 15
e 10 16
e 10 19
e 10 20
e 10 22
e 10 24
e 10 26
e 10 27
e 10 30
e 10 33
e 10 38
e 10 39
e 10 40
e 10 43
e 10 44
e 10 51
e 10 54
e 10 59
e 10 60
e 10 61
e 10 62
e 10 65
e 10 67
e 10 68
e 10 74
e 10 78
e 10 80
e 10 81
e 10 85
e 10 87
e 10 88
e 10 90
e 10 92
e 10 93
e 10 95
e 10 96
e 10 99
e 10 100
e 11 12
e 11 14
e 11 16
e 11 17
e 11 18
e 11 19
e 11 20
e 11 21
e 11 26
e 11 27
e 11 30
e 11 31
e 11 32
e 11 37
e 11 40
e 11 43
e 11 44
e 11 45
e 11 46
e 11 50
e 11 53
e 11 55
e 11 62
e 11 63
e 11 64
e 11 65
e 11 67
e 11 72
e 11 76
e 11 79
e 11 80
e 11 84
e 11 85
e 11 91
e 11 93
e 11 94
e 11 95
e 11 98
e 12 17
e 12 20
e 12 22
e 12 23
e 12 28
e 12 30
e 12 31
e 12 34
e 12 35
e 12 47
e 12 48
e 12 53
e 12 54
e 12 57
e 12 63
e 12 66
e 12 67
e 12 69
e 12 70
e 12 73
e 12 74
e 12 77
e 12 78
e 12 80
e 12 81
e 12 82
e 12 85
e 12 87
e 12 89
e 12 90
e 12 92
e 12 93
e 12 98
e 12 100
e 13 19
e 13 22
e 13 26
e 13 29
e 13 30
e 13 31
e 13 32
e 13 33
e 13 37
e 13 38
e 13 45
e 13 46
e 13 50
e 13 51
e 13 52
e 13 53
e 13 55
e 13 58
e 13 59
e 13 62
e 13 63
e 13 65
e 13 68
e 13 69
e 13 74
e 13 77
e 13 80
e 13 82
e 13 83
e 13 84
e 13 88
e 13 92
e 13 94
e 13 96
e 13 97
e 13 98
e 14 21
e 14 23
e 14 28
e 14 29
e 14 31
e 14 32
e 14 34
e 14 38
e 14 39
e 14 44
e 14 51
e 14 53
e 14 54
e 14 59
e 14 61
e 14 62
e 14 66
e 14 68
e 14 69
e 14 70
e 14 72
e 14 74
e 14 84
e 14 92
e 14 93
e 14 96
e 15 25
e 15 29
e 15 30
e 15 32
e 15 37
e 15 39
e 15 41
e 15 44
e 15 46
e 15 48
e 15 49
e 15 50
e 15 51
e 15 52
e 15 56
e 15 57
e 15 60
e 15 66
e 15 69
e 15 70
e 15 73
e 15 74
e 15 78
e 15 81
e 15 83
e 15 85
e 15 87
e 15 88
e 15 92
e 15 95
e 15 100
e 16 17
e 16 18
e 16 20
e 16 23
e 16 24
e 16 25
e 16 26
e 16 27
e 16 30
e 16 33
e 16 45
e 16 46
e 16 47
e 16 52
e 16 53
e 16 56
e 16 57
e 16 58
e 16 61
e 16 62
e 16 65
e 16 70
e 16 71
e 16 72
e 16 74
e 16 76
e 16 78
e 16 82
e 16 83
e 16 85
e 16 86
e 16 87
e 16 95
e 16 96
e 16 99
e 16 100
e 17 18
e 17 19
e 17 20
e 17 22
e 17 23
e 17 24
e 17 29
e 17 33
e 17 36
e 17 37
e 17 42
e 17 43
e 17 46
e 17 48
e 17 49
e 17 51
e 17 53
e 17 54
e 17 55
e 17 59
e 17 60
e 17 62
e 17 74
e 17 77
e 17 80
e 17 81
e 17 83
e 17 87
e 17 89
e 17 90
e 17 92
e 17 97
e 17 98
e 17 100
e 18 19
e 18 21
e 18 23
e 18 25
e 18 28
e 18 29
e 18 30
e 18 31
e 18 37
e 18 38
e 18 41
e 18 42
e 18 43
e 18 47
e 18 48
e 18 49
e 18 50
e 18 53
e 18 56
e 18 58
e 18 62
e 18 63
e 18 66
e 18 67
e 18 68
e 18 69
e 18 73
e 18 74
e 18 77
e 18 78
e 18 79
e 18 82
e 18 84
e 18 87
e 18 89
e 18 91
e 18 92
e 18 93
e 18 96
e 18 97
e 18 100
e 19 22
e 19 26
e 19 27
e 19 31
e 19 34
e 19 36
e 19 37
e 19 39
e 19 43
e 19 44
e 19 49
e 19 51
e 19 54
e 19 64
e 19 66
e 19 68
e 19 73
e 19 77
e 19 78
e 19 79
e 19 80
e 19 81
e 19 84
e 19 85
e 19 86
e 19 92
e 19 95
e 19 96
e 19 97
e 19 98
e 19 99
e 20 27
e 20 28
e 20 30
e 20 34
e 20 36
e 20 42
e 20 43
e 20 45
e 20 46
e 20 47
e 20 49
e 20 50
e 20 56
e 20 60
e 20 62
e 20 64
e 20 65
e 20 66
e 20 67
e 20 69
e 20 73
e 20 75
e 20 77
e 20 78
e 20 79
e 20 82
e 20 84
e 20 86
e 20 93
e 20 94
e 20 99
e 21 24
e 21 25
e 21 26
e 21 29
e 21 30
e 21 38
e 21 42
e 21 43
e 21 51
e 21 53
e 21 54
e 21 58
e 21 61
e 21 67
e 21 68
e 21 70
e 21 71
e 21 72
e 21 73
e 21 74
e 21 77
e 21 79
e 21 80
e 21 82
e 21 84
e 21 85
e 21 87
e 21 91
e 21 92
e 21 93
e 21 98
e 21 100
e 22 26
e 22 28
e 22 32
e 22 33
e 22 35
e 22 38
e 22 39
e 22 46
e 22 50
e 22 51
e 22 53
e 22 54
e 22 55
e 22 56
e 22 57
e 22 59
e 22 60
e 22 62
e 22 64
e 22 66
e 22 67
e 22 68
e 22 69
e 22 70
e 22 71
e 22 72
e 22 73
e 22 75
e 22 77
e 22 78
e 22 82
e 22 83
e 22 85
e 22 86
e 22 89
e 22 91
e 22 94
e 22 95
e 22 96
e 22 97
e 22 99
e 22 100
e 23 25
e 23 27
e 23 29
e 23 30
e 23 33
e 23 34
e 23 38
e 23 40
e 23 42
e 23 46
e 23 53
e 23 54
e 23 55
e 23 56
e 23 58
e 23 59
e 23 61
e 23 63
e 23 65
e 23 66
e 23 68
e 23 71
e 23 72
e 23 73
e 23 75
e 23 80
e 23 82
e 23 85
e 23 88
e 23 93
e 23 94
e 23 97
e 24 26
e 24 31
e 24 35
e 24 36
e 24 40
e 24 42
e 24 44
e 24 46
e 24 47
e 24 50
e 24 59
e 24 62
e 24 65
e 24 66
e 24 68
e 24 69
e 24 71
e 24 76
e 24 80
e 24 82
e 24 84
e 24 86
e 24 87
e 24 90
e 24 92
e 24 98
e 24 99
e 24 100
e 25 27
e 25 35
e 25 37
e 25 39
e 25 40
e 25 41
e 25 44
e 25 47
e 25 48
e 25 49
e 25 51
e 25 52
e 25 55
e 25 56
e 25 57
e 25 59
e 25 60
e 25 61
e 25 62
e 25 63
e 25 64
e 25 67
e 25 70
e 25 74
e 25 75
e 25 76
e 25 82
e 25 84
e 25 85
e 25 87
e 25 91
e 25 92
e 25 98
e 25 100
e 26 27
e 26 29
e 26 33
e 26 39
e 26 40
e 26 42
e 26 43
e 26 45
e 26 47
e 26 48
e 26 51
e 26 54
e 26 55
e 26 58
e 26 60
e 26 63
e 26 64
e 26 65
e 26 66
e 26 67
e 26 69
e 26 72
e 26 73
e 26 74
e 26 75
e 26 79
e 26 80
e 26 81
e 26 82
e 26 85
e 26 87
e 26 89
e 26 91
e 26 93
e 26 95
e 26 96
e 27 30
e 27 33
e 27 34
e 27 36
e 27 38
e 27 42
e 27 47
e 27 52
e 27 53
e 27 54
e 27 57
e 27 59
e 27 60
e 27 62
e 27 64
e 27 66
e 27 68
e 27 71
e 27 73
e 27 85
e 27 86
e 27 89
e 27 91
e 27 92
e 27 94
e 27 95
e 27 96
e 27 97
e 27 99
e 27 100
e 28 32
e 28 33
e 28 37
e 28 41
e 28 43
e 28 44
e 28 46
e 28 47
e 28 49
e 28 50
e 28 52
e 28 53
e 28 55
e 28 58
e 28 62
e 28 63
e 28 64
e 28 65
e 28 66
e 28 67
e 28 69
e 28 71
e 28 72
e 28 73
e 28 76
e 28 81
e 28 87
e 28 94
e 28 100
e 29 32
e 29 36
e 29 37
e 29 41
e 29 42
e 29 44
e 29 45
e 29 46
e 29 47
e 29 48
e 29 51
e 29 53
e 29 60
e 29 62
e 29 63
e 29 65
e 29 66
e 29 68
e 29 69
e 29 70
e 29 72
e 29 73
e 29 79
e 29 83
e 29 86
e 29 89
e 29 97
e 29 98
e 29 99
e 30 38
e 30 39
e 30 40
e 30 42
e 30 46
e 30 50
e 30 51
e 30 54
e 30 60
e 30 61
e 30 62
e 30 63
e 30 66
e 30 67
e 30 68
e 30 73
e 30 74
e 30 75
e 30 76
e 30 86
e 30 87
e 30 88
e 30 91
e 30 92
e 30 95
e 30 99
e 31 36
e 31 40
e 31 43
e 31 46
e 31 48
e 31 50
e 31 54
e 31 61
e 31 63
e 31 65
e 31 66
e 31 67
e 31 70
e 31 73
e 31 74
e 31 79
e 31 81
e 31 84
e 31 88
e 31 94
e 31 95
e 31 96
e 31 97
e 31 98
e 32 36
e 32 38
e 32 40
e 32 41
e 32 47
e 32 49
e 32 57
e 32 62
e 32 68
e 32 72
e 32 77
e 32 78
e 32 79
e 32 80
e 32 81
e 32 83
e 32 92
e 32 93
e 32 97
e 33 35
e 33 36
e 33 37
e 33 38
e 33 39
e 33 43
e 33 45
e 33 46
e 33 47
e 33 48
e 33 52
e 33 59
e 33 60
e 33 62
e 33 64
e 33 65
e 33 66
e 33 70
e 33 72
e 33 75
e 33 80
e 33 81
e 33 83
e 33 89
e 33 92
e 33 94
e 33 97
e 33 98
e 33 99
e 34 40
e 34 42
e 34 43
e 34 46
e 34 47
e 34 49
e 34 50
e 34 54
e 34 55
e 34 56
e 34 58
e 34 59
e 34 60
e 34 61
e 34 62
e 34 68
e 34 69
e 34 73
e 34 74
e 34 75
e 34 76
e 34 77
e 34 78
e 34 84
e 34 85
e 34 86
e 34 91
e 34 97
e 34 98
e 34 100
e 35 38
e 35 39
e 35 41
e 35 42
e 35 44
e 35 45
e 35 52
e 35 54
e 35 59
e 35 60
e 35 67
e 35 69
e 35 72
e 35 74
e 35 79
e 35 81
e 35 84
e 35 86
e 35 90
e 35 93
e 35 94
e 35 97
e 35 99
e 36 37
e 36 40
e 36 43
e 36 44
e 36 48
e 36 49
e 36 57
e 36 58
e 36 59
e 36 61
e 36 63
e 36 64
e 36 65
e 36 66
e 36 74
e 36 79
e 36 81
e 36 82
e 36 87
e 36 88
e 36 89
e 36 91
e 36 95
e 36 98
e 37 41
e 37 43
e 37 45
e 37 49
e 37 50
e 37 54
e 37 55
e 37 57
e 37 61
e 37 63
e 37 66
e 37 67
e 37 68
e 37 69
e 37 70
e 37 89
e 37 91
e 37 93
e 37 97
e 37 98
e 37 99
e 38 44
e 38 45
e 38 48
e 38 51
e 38 52
e 38 56
e 38 60
e 38 63
e 38 67
e 38 68
e 38 71
e 38 74
e 38 77
e 38 78
e 38 80
e 38 83
e 38 84
e 38 87
e 38 90
e 38 93
e 39 41
e 39 47
e 39 48
e 39 49
e 39 51
e 39 52
e 39 58
e 39 59
e 39 61
e 39 64
e 39 68
e 39 70
e 39 72
e 39 73
e 39 76
e 39 80
e 39 81
e 39 84
e 39 86
e 39 92
e 39 93
e 39 94
e 39 97
e 39 99
e 40 42
e 40 47
e 40 48
e 40 52
e 40 53
e 40 56
e 40 59
e 40 61
e 40 63
e 40 64
e 40 65
e 40 66
e 40 70
e 40 72
e 40 74
e 40 75
e 40 76
e 40 84
e 40 85
e 40 91
e 40 93
e 40 94
e 40 97
e 40 100
e 41 50
e 41 51
e 41 52
e 41 53
e 41 55
e 41 56
e 41 57
e 41 60
e 41 66
e 41 70
e 41 72
e 41 73
e 41 74
e 41 75
e 41 79
e 41 80
e 41 83
e 41 84
e 41 86
e 41 87
e 41 90
e 41 92
e 41 94
e 41 96
e 41 97
e 41 100
e 42 43
e 42 46
e 42 48
e 42 50
e 42 51
e 42 52
e 42 53
e 42 57
e 42 62
e 42 68
e 42 69
e 42 76
e 42 81
e 42 84
e 42 85
e 42 86
e 42 94
e 42 95
e 42 96
e 42 98
e 42 99
e 43 44
e 43 45
e 43 51
e 43 53
e 43 59
e 43 61
e 43 63
e 43 68
e 43 69
e 43 70
e 43 72
e 43 73
e 43 74
e 43 75
e 43 76
e 43 77
e 43 80
e 43 81
e 43 84
e 43 88
e 43 89
e 43 91
e 43 92
e 43 93
e 43 94
e 44 46
e 44 52
e 44 55
e 44 56
e 44 57
e 44 58
e 44 59
e 44 63
e 44 64
e 44 68
e 44 75
e 44 76
e 44 78
e 44 79
e 44 83
e 44 87
e 44 88
e 44 89
e 44 90
e 44 92
e 44 93
e 44 97
e 44 99
e 45 48
e 45 49
e 45 50
e 45 51
e 45 52
e 45 53
e 45 55
e 45 58
e 45 59
e 45 60
e 45 61
e 45 64
e 45 66
e 45 71
e 45 76
e 45 78
e 45 83
e 45 84
e 45 86
e 45 88
e 45 90
e 45 91
e 45 93
e 45 95
e 45 97
e 45 99
e 45 100
e 46 48
e 46 49
e 46 50
e 46 54
e 46 55
e 46 56
e 46 57
e 46 59
e 46 62
e 46 64
e 46 69
e 46 74
e 46 76
e 46 77
e 46 80
e 46 81
e 46 82
e 46 84
e 46 85
e 46 86
e 46 88
e 46 89
e 46 92
e 46 97
e 47 48
e 47 49
e 47 51
e 47 52
e 47 53
e 47 54
e 47 57
e 47 58
e 47 61
e 47 62
e 47 64
e 47 65
e 47 66
e 47 73
e 47 74
e 47 75
e 47 76
e 47 77
e 47 82
e 47 84
e 47 85
e 47 86
e 47 87
e 47 89
e 47 91
e 47 92
e 47 94
e 47 96
e 48 54
e 48 56
e 48 57
e 48 59
e 48 60
e 48 61
e 48 62
e 48 65
e 48 74
e 48 80
e 48 81
e 48 82
e 48 85
e 48 88
e 48 89
e 48 91
e 48 94
e 48 95
e 48 96
e 48 99
e 48 100
e 49 52
e 49 53
e 49 54
e 49 55
e 49 57
e 49 66
e 49 68
e 49 70
e 49 71
e 49 76
e 49 81
e 49 82
e 49 89
e 49 90
e 49 92
e 49 96
e 49 97
e 49 100
e 50 54
e 50 55
e 50 58
e 50 59
e 50 60
e 50 61
e 50 66
e 50 69
e 50 70
e 50 71
e 50 80
e 50 84
e 50 87
e 50 90
e 50 93
e 50 94
e 50 98
e 50 99
e 51 56
e 51 57
e 51 58
e 51 60
e 51 62
e 51 67
e 51 70
e 51 72
e 51 73
e 51 79
e 51 81
e 51 82
e 51 83
e 51 84
e 51 85
e 51 88
e 51 91
e 51 94
e 51 96
e 51 100
e 52 54
e 52 59
e 52 61
e 52 68
e 52 78
e 52 79
e 52 80
e 52 81
e 52 82
e 52 83
e 52 87
e 52 88
e 52 91
e 52 94
e 52 100
e 53 56
e 53 58
e 53 59
e 53 60
e 53 63
e 53 64
e 53 68
e 53 70
e 53 76
e 53 78
e 53 81
e 53 82
e 53 83
e 53 84
e 53 86
e 53 89
e 53 90
e 53 92
e 53 98
e 53 99
e 53 100
e 54 58
e 54 62
e 54 64
e 54 65
e 54 68
e 54 70
e 54 71
e 54 72
e 54 74
e 54 75
e 54 76
e 54 81
e 54 87
e 54 88
e 54 89
e 54 91
e 54 93
e 54 94
e 54 97
e 54 98
e 55 61
e 55 62
e 55 63
e 55 64
e 55 68
e 55 69
e 55 70
e 55 71
e 55 78
e 55 82
e 55 83
e 55 84
e 55 85
e 55 86
e 55 87
e 55 88
e 55 89
e 55 95
e 55 97
e 55 98
e 55 100
e 56 57
e 56 58
e 56 59
e 56 61
e 56 63
e 56 64
e 56 66
e 56 67
e 56 71
e 56 72
e 56 73
e 56 76
e 56 77
e 56 78
e 56 81
e 56 82
e 56 86
e 56 87
e 56 88
e 56 89
e 56 90
e 56 93
e 56 94
e 56 97
e 56 99
e 57 58
e 57 59
e 57 60
e 57 63
e 57 66
e 57 68
e 57 73
e 57 75
e 57 77
e 57 80
e 57 86
e 57 87
e 57 88
e 57 94
e 57 97
e 57 99
e 57 100
e 58 66
e 58 73
e 58 74
e 58 76
e 58 77
e 58 79
e 58 82
e 58 83
e 58 84
e 58 87
e 58 91
e 58 93
e 58 99
e 59 61
e 59 63
e 59 64
e 59 65
e 59 67
e 59 69
e 59 73
e 59 75
e 59 79
e 59 80
e 59 82
e 59 83
e 59 84
e 59 86
e 59 90
e 59 94
e 59 95
e 59 96
e 59 98
e 60 64
e 60 68
e 60 70
e 60 72
e 60 74
e 60 75
e 60 78
e 60 79
e 60 83
e 60 84
e 60 85
e 60 86
e 60 88
e 60 89
e 60 92
e 60 93
e 60 100
e 61 63
e 61 65
e 61 66
e 61 67
e 61 70
e 61 75
e 61 77
e 61 82
e 61 86
e 61 88
e 61 90
e 61 95
e 61 96
e 61 97
e 61 98
e 62 67
e 62 68
e 62 69
e 62 70
e 62 71
e 62 72
e 62 75
e 62 84
e 62 86
e 62 87
e 62 89
e 62 91
e 62 96
e 63 64
e 63 67
e 63 70
e 63 71
e 63 77
e 63 81
e 63 87
e 63 89
e 63 90
e 63 94
e 63 97
e 64 67
e 64 68
e 64 69
e 64 73
e 64 75
e 64 78
e 64 87
e 64 89
e 64 90
e 64 91
e 64 92
e 64 94
e 64 98
e 65 66
e 65 67
e 65 71
e 65 72
e 65 74
e 65 77
e 65 79
e 65 83
e 65 87
e 65 91
e 65 94
e 65 95
e 65 98
e 66 70
e 66 71
e 66 72
e 66 78
e 66 81
e 66 83
e 66 84
e 66 86
e 66 87
e 66 88
e 66 89
e 66 92
e 66 93
e 66 95
e 66 97
e 66 99
e 66 100
e 67 68
e 67 69
e 67 70
e 67 73
e 67 75
e 67 81
e 67 83
e 67 85
e 67 88
e 67 90
e 67 93
e 67 98
e 68 70
e 68 72
e 68 78
e 68 80
e 68 82
e 68 83
e 68 84
e 68 87
e 68 89
e 68 91
e 68 94
e 68 97
e 68 98
e 69 72
e 69 76
e 69 82
e 69 87
e 69 90
e 69 92
e 69 94
e 69 95
e 69 98
e 69 99
e 70 76
e 70 77
e 70 80
e 70 83
e 70 87
e 70 93
e 70 96
e 70 97
e 71 72
e 71 74
e 71 76
e 71 79
e 71 80
e 71 81
e 71 84
e 71 85
e 71 88
e 71 90
e 71 94
e 71 95
e 71 97
e 71 100
e 72 76
e 72 79
e 72 82
e 72 86
e 72 88
e 72 89
e 72 90
e 72 91
e 72 94
e 72 96
e 72 98
e 73 75
e 73 82
e 73 84
e 73 88
e 73 96
e 74 77
e 74 78
e 74 82
e 74 85
e 74 86
e 74 88
e 74 93
e 74 99
e 75 77
e 75 80
e 75 82
e 75 83
e 75 84
e 75 85
e 75 88
e 75 89
e 75 93
e 75 94
e 75 95
e 75 96
e 76 78
e 76 80
e 76 82
e 76 83
e 76 85
e 76 88
e 76 96
e 76 97
e 76 99
e 76 100
e 77 78
e 77 82
e 77 83
e 77 87
e 77 90
e 77 94
e 77 97
e 77 98
e 78 79
e 78 80
e 78 81
e 78 87
e 78 88
e 78 91
e 78 92
e 78 94
e 78 97
e 78 98
e 78 100
e 79 81
e 79 85
e 79 91
e 79 95
e 79 96
e 79 100
e 80 85
e 80 89
e 80 90
e 80 93
e 80 95
e 80 96
e 81 85
e 81 88
e 81 93
e 81 94
e 81 95
e 81 98
e 82 83
e 82 90
e 82 94
e 82 97
e 83 85
e 83 86
e 83 87
e 83 91
e 83 95
e 83 96
e 83 99
e 84 85
e 84 89
e 84 95
e 84 96
e 85 86
e 85 87
e 85 88
e 85 95
e 85 96
e 85 97
e 85 100
e 86 87
e 86 89
e 86 90
e 86 91
e 86 100
e 87 89
e 87 91
e 87 92
e 87 93
e 87 95
e 87 96
e 87 100
e 88 96
e 88 97
e 88 100
e 89 91
e 89 92
e 89 96
e 89 100
e 90 92
e 90 93
e 90 95
e 90 98
e 91 94
e 91 95
e 91 96
e 91 97
e 91 99
e 91 100
e 92 93
e 92 94
e 92 96
e 92 97
e 92 98
e 92 99
e 92 100
e 93 95
e 93 98
e 93 99
e 93 100
e 94 95
e 94 97
e 94 99
e 95 96
e 97 98
e 97 99
e 97 100